








































































































51 45 70 13 47 57 48 59 39 
6 53 26 54 3 37 55 4 
12 56 58 5 68 35 62 67 
20 2 75 76 30 8 7 16 
71 19 23 0 41 33 50 18 
14 64 31 21 15 24 29 27 
46 44 61 49 32 72 25 1 
38 74 34 9 52 63 42 11 73 
60 17 10 22 69 28 43 36 
65 40 66 
